
   AbsCon 1.41 (January, 2014) - defaultConfiguration

   
   instance
        framework=CSP  name=Isomorphism-/cluster/gpg/ciaran/sip-benchmarks/benchmarks/LV/g34-/cluster/gpg/ciaran/sip-benchmarks/benchmarks/LV/g41
        parameters=/cluster/gpg/ciaran/sip-benchmarks/benchmarks/LV/g34,/cluster/gpg/ciaran/sip-benchmarks/benchmarks/LV/g41
      

   loading variables...
        nbVariables=120  nbDomainTypes=1  nbTotalValues=15360  domainSizes=(128:120)
          =>  wckTime=0.177  cpuTime=0.295  mem=10M306

   loading objectives...

   loading constraints...
        nbConstraints=241  nbSpecificConstraints=1  nbExtensionStructures=(1,shared:239)  nbConflictsStructures=(1,shared:239,unbuilt:1)
        degrees=(5:120)  arities=(2:240)(120:1)  types=(AllDifferent:1)(ConstraintHardExtensionV-Bits:240)
          =>  wckTime=0.256  cpuTime=0.367  mem=8M135

   INFO : <!-- Start saving the XML representation -->

   INFO : <!-- Stop saving the XML representation of g41.xml -->

   Solver SolverBacktrack being built... 
          =>  wckTime=0.44  cpuTime=0.524  mem=22M913

   
   search
        run=0  nbConstraintChecks=0  depth=(min:0,max:0,avg:1)  nbEffectivePropagations=1033  nbRevisions=4281  nbUselessRevisions=3610
        nbAssignments=249  nbFailedAssignments=249  nbBacktracks=1  nbVisitedNodes=498  nbRestartNogoods=0
          =>  wckTime=9.2  cpuTime=9.677  mem=38M740

   
   global
        nbConstraintChecks=0  nbEffectivePropagations=1033  nbRevisions=4281  nbUselessRevisions=3610  nbRestartNogoods=0  solvingWckTime=9.201
        expiredTime=no  totalExploration=yes  nbFoundSolutions=0  Stop=FULL_EXPLORATION
          =>  wckTime=9.641  cpuTime=9.677  mem=38M740

s UNSATISFIABLE
d NODES 249

   totalWckTime=9.547  totalCpuTime=9.677
